NAME : zqloutput/eax-hard-simple-rescaleandround/50-10.tsp
TYPE : TSP
DIMENSION : 50
EDGE_WEIGHT_TYPE : EUC_2D
NODE_COORD_SECTION
1 142708 987650
2 698151 61014
3 100849 215617
4 183959 138968
5 650750 377806
6 805783 978329
7 603607 19854
8 752878 115360
9 286043 153622
10 521054 539227
11 272824 420361
12 954198 660904
13 44529 310168
14 900660 106254
15 641752 629989
16 658621 76880
17 727995 657908
18 177145 801787
19 588192 183594
20 91790 631702
21 388412 135320
22 555209 366395
23 15421 754610
24 69905 801828
25 648345 311768
26 921038 239954
27 353326 407012
28 643997 56570
29 106835 747412
30 215285 149983
31 382851 974044
32 445372 681284
33 475535 994677
34 544576 877278
35 181663 305124
36 80099 601566
37 446448 100548
38 970766 235203
39 121430 574514
40 362703 814881
41 422888 663923
42 667119 731208
43 880759 89019
44 231784 987902
45 555035 835162
46 920667 655783
47 61990 486753
48 789241 537947
49 16361 778941
50 497944 343968
EOF
